c "623094.clq"
p edge 251 3760
e 1 17
e 1 18
e 1 19
e 1 20
e 1 21
e 1 22
e 1 24
e 1 25
e 1 27
e 1 28
e 1 29
e 1 30
e 1 31
e 1 32
e 1 34
e 1 35
e 1 36
e 1 37
e 1 42
e 1 43
e 1 49
e 1 51
e 1 53
e 1 54
e 1 55
e 1 56
e 1 58
e 1 59
e 1 62
e 1 64
e 1 65
e 1 70
e 1 72
e 1 74
e 1 75
e 1 76
e 1 81
e 1 82
e 1 84
e 1 88
e 1 91
e 1 92
e 1 94
e 1 97
e 1 100
e 1 105
e 1 107
e 1 119
e 1 120
e 1 122
e 1 123
e 1 124
e 1 128
e 1 130
e 1 134
e 1 140
e 1 141
e 1 175
e 1 176
e 1 178
e 1 179
e 1 180
e 1 186
e 1 191
e 1 196
e 1 199
e 1 204
e 1 205
e 1 209
e 1 219
e 1 228
e 1 231
e 1 241
e 2 17
e 2 18
e 2 19
e 2 20
e 2 21
e 2 22
e 2 24
e 2 25
e 2 26
e 2 27
e 2 28
e 2 29
e 2 30
e 2 34
e 2 35
e 2 36
e 2 38
e 2 40
e 2 45
e 2 53
e 2 57
e 2 62
e 2 67
e 2 68
e 2 70
e 2 71
e 2 75
e 2 86
e 2 91
e 2 95
e 2 99
e 2 101
e 2 103
e 2 113
e 2 119
e 2 127
e 2 129
e 2 134
e 2 135
e 2 145
e 2 160
e 2 173
e 2 177
e 2 181
e 2 184
e 2 199
e 2 217
e 2 242
e 2 244
e 3 17
e 3 18
e 3 19
e 3 20
e 3 28
e 3 30
e 3 31
e 3 32
e 3 37
e 3 39
e 3 40
e 3 41
e 3 53
e 3 54
e 3 55
e 3 57
e 3 58
e 3 59
e 3 71
e 3 72
e 3 78
e 3 86
e 3 94
e 3 98
e 3 108
e 3 119
e 3 151
e 3 158
e 3 171
e 3 178
e 3 183
e 3 185
e 3 199
e 3 204
e 3 235
e 3 243
e 4 17
e 4 18
e 4 19
e 4 20
e 4 21
e 4 22
e 4 23
e 4 24
e 4 25
e 4 26
e 4 27
e 4 28
e 4 29
e 4 30
e 4 32
e 4 34
e 4 35
e 4 37
e 4 38
e 4 42
e 4 44
e 4 45
e 4 48
e 4 50
e 4 51
e 4 53
e 4 54
e 4 59
e 4 61
e 4 63
e 4 64
e 4 65
e 4 68
e 4 69
e 4 70
e 4 75
e 4 79
e 4 85
e 4 93
e 4 94
e 4 98
e 4 99
e 4 121
e 4 123
e 4 125
e 4 127
e 4 131
e 4 142
e 4 146
e 4 147
e 4 154
e 4 155
e 4 162
e 4 172
e 4 179
e 4 192
e 4 194
e 4 213
e 4 215
e 4 235
e 4 236
e 4 239
e 5 17
e 5 18
e 5 19
e 5 20
e 5 21
e 5 23
e 5 26
e 5 27
e 5 36
e 5 39
e 5 41
e 5 45
e 5 48
e 5 56
e 5 60
e 5 62
e 5 63
e 5 64
e 5 72
e 5 77
e 5 78
e 5 89
e 5 99
e 5 104
e 5 112
e 5 116
e 5 121
e 5 124
e 5 135
e 5 137
e 5 138
e 5 152
e 5 174
e 5 188
e 5 194
e 5 207
e 5 210
e 5 235
e 6 17
e 6 18
e 6 19
e 6 24
e 6 26
e 6 27
e 6 28
e 6 32
e 6 33
e 6 34
e 6 35
e 6 38
e 6 42
e 6 43
e 6 47
e 6 50
e 6 57
e 6 61
e 6 64
e 6 77
e 6 81
e 6 104
e 6 107
e 6 111
e 6 120
e 6 127
e 6 150
e 6 159
e 6 164
e 6 169
e 6 173
e 6 176
e 6 179
e 6 187
e 6 193
e 6 201
e 6 202
e 6 211
e 6 215
e 6 219
e 6 223
e 6 225
e 6 230
e 6 236
e 7 17
e 7 18
e 7 19
e 7 20
e 7 21
e 7 22
e 7 26
e 7 34
e 7 46
e 7 47
e 7 49
e 7 53
e 7 60
e 7 62
e 7 66
e 7 69
e 7 72
e 7 83
e 7 84
e 7 98
e 7 101
e 7 103
e 7 104
e 7 106
e 7 130
e 7 154
e 7 161
e 7 187
e 7 190
e 7 236
e 7 237
e 8 17
e 8 18
e 8 19
e 8 20
e 8 21
e 8 22
e 8 23
e 8 24
e 8 26
e 8 29
e 8 31
e 8 33
e 8 48
e 8 51
e 8 61
e 8 100
e 8 102
e 8 108
e 8 124
e 8 128
e 8 133
e 8 136
e 8 144
e 8 166
e 8 180
e 8 192
e 8 194
e 8 196
e 8 214
e 8 216
e 9 17
e 9 18
e 9 19
e 9 20
e 9 21
e 9 22
e 9 23
e 9 25
e 9 26
e 9 27
e 9 28
e 9 31
e 9 32
e 9 42
e 9 48
e 9 49
e 9 50
e 9 51
e 9 63
e 9 64
e 9 66
e 9 68
e 9 81
e 9 96
e 9 97
e 9 100
e 9 106
e 9 109
e 9 115
e 9 123
e 9 133
e 9 139
e 9 144
e 9 147
e 9 152
e 9 170
e 9 176
e 9 177
e 9 178
e 9 197
e 9 198
e 10 17
e 10 18
e 10 19
e 10 20
e 10 22
e 10 23
e 10 25
e 10 26
e 10 27
e 10 28
e 10 29
e 10 30
e 10 31
e 10 33
e 10 36
e 10 44
e 10 53
e 10 59
e 10 61
e 10 69
e 10 71
e 10 73
e 10 85
e 10 99
e 10 109
e 10 114
e 10 117
e 10 130
e 10 144
e 10 158
e 10 178
e 10 206
e 10 217
e 10 222
e 10 223
e 10 232
e 10 241
e 11 17
e 11 18
e 11 19
e 11 20
e 11 21
e 11 22
e 11 23
e 11 24
e 11 26
e 11 29
e 11 30
e 11 33
e 11 34
e 11 35
e 11 37
e 11 39
e 11 42
e 11 43
e 11 45
e 11 47
e 11 52
e 11 57
e 11 58
e 11 59
e 11 72
e 11 88
e 11 92
e 11 103
e 11 105
e 11 108
e 11 110
e 11 118
e 11 120
e 11 126
e 11 129
e 11 138
e 11 139
e 11 140
e 11 143
e 11 158
e 11 166
e 11 171
e 11 190
e 11 213
e 11 215
e 11 233
e 11 239
e 11 242
e 11 250
e 12 17
e 12 18
e 12 19
e 12 20
e 12 21
e 12 22
e 12 23
e 12 24
e 12 25
e 12 26
e 12 27
e 12 28
e 12 30
e 12 31
e 12 32
e 12 33
e 12 34
e 12 36
e 12 39
e 12 40
e 12 42
e 12 46
e 12 47
e 12 52
e 12 62
e 12 68
e 12 73
e 12 76
e 12 78
e 12 79
e 12 91
e 12 100
e 12 102
e 12 103
e 12 106
e 12 114
e 12 115
e 12 117
e 12 118
e 12 119
e 12 123
e 12 126
e 12 147
e 12 156
e 12 157
e 12 165
e 12 169
e 12 175
e 12 188
e 12 189
e 12 192
e 12 204
e 12 211
e 12 213
e 12 214
e 12 221
e 12 223
e 12 226
e 12 227
e 13 17
e 13 24
e 13 93
e 13 103
e 13 131
e 13 159
e 13 214
e 14 17
e 14 18
e 14 19
e 14 21
e 14 22
e 14 23
e 14 24
e 14 25
e 14 33
e 14 37
e 14 38
e 14 48
e 14 49
e 14 51
e 14 55
e 14 57
e 14 58
e 14 60
e 14 70
e 14 85
e 14 87
e 14 90
e 14 93
e 14 99
e 14 101
e 14 106
e 14 118
e 14 121
e 14 143
e 14 154
e 14 157
e 14 162
e 14 192
e 14 196
e 14 230
e 14 241
e 15 17
e 15 18
e 15 19
e 15 20
e 15 21
e 15 22
e 15 23
e 15 27
e 15 29
e 15 31
e 15 33
e 15 45
e 15 47
e 15 51
e 15 52
e 15 57
e 15 60
e 15 62
e 15 70
e 15 72
e 15 73
e 15 86
e 15 87
e 15 101
e 15 102
e 15 109
e 15 120
e 15 125
e 15 132
e 15 137
e 15 141
e 15 146
e 15 149
e 15 156
e 15 163
e 15 174
e 15 183
e 15 185
e 15 210
e 15 217
e 15 244
e 15 251
e 16 17
e 16 18
e 16 20
e 16 21
e 16 22
e 16 23
e 16 25
e 16 35
e 16 41
e 16 47
e 16 65
e 16 66
e 16 74
e 16 84
e 16 87
e 16 88
e 16 98
e 16 115
e 16 118
e 16 127
e 16 130
e 16 142
e 16 149
e 16 164
e 16 186
e 16 195
e 16 196
e 16 231
e 16 243
e 17 18
e 17 19
e 17 20
e 17 21
e 17 22
e 17 23
e 17 24
e 17 25
e 17 27
e 17 28
e 17 29
e 17 30
e 17 32
e 17 34
e 17 35
e 17 37
e 17 39
e 17 40
e 17 41
e 17 44
e 17 45
e 17 47
e 17 49
e 17 56
e 17 57
e 17 62
e 17 63
e 17 65
e 17 66
e 17 67
e 17 68
e 17 69
e 17 71
e 17 72
e 17 73
e 17 77
e 17 79
e 17 81
e 17 82
e 17 85
e 17 87
e 17 89
e 17 90
e 17 92
e 17 93
e 17 99
e 17 104
e 17 108
e 17 110
e 17 112
e 17 114
e 17 115
e 17 119
e 17 125
e 17 127
e 17 132
e 17 140
e 17 141
e 17 147
e 17 155
e 17 157
e 17 158
e 17 160
e 17 161
e 17 170
e 17 172
e 17 174
e 17 180
e 17 181
e 17 184
e 17 185
e 17 192
e 17 204
e 17 206
e 17 220
e 17 225
e 17 227
e 17 229
e 17 233
e 17 234
e 17 236
e 17 238
e 17 242
e 17 247
e 18 19
e 18 20
e 18 21
e 18 22
e 18 23
e 18 24
e 18 25
e 18 27
e 18 29
e 18 30
e 18 31
e 18 33
e 18 36
e 18 37
e 18 38
e 18 42
e 18 46
e 18 48
e 18 50
e 18 51
e 18 54
e 18 55
e 18 56
e 18 58
e 18 59
e 18 60
e 18 61
e 18 64
e 18 65
e 18 67
e 18 71
e 18 73
e 18 75
e 18 79
e 18 81
e 18 83
e 18 84
e 18 89
e 18 96
e 18 97
e 18 98
e 18 99
e 18 103
e 18 107
e 18 114
e 18 119
e 18 123
e 18 125
e 18 128
e 18 130
e 18 132
e 18 139
e 18 142
e 18 144
e 18 154
e 18 156
e 18 160
e 18 162
e 18 163
e 18 169
e 18 176
e 18 177
e 18 182
e 18 184
e 18 185
e 18 188
e 18 190
e 18 192
e 18 207
e 18 208
e 18 216
e 18 217
e 18 218
e 18 229
e 18 230
e 18 236
e 18 238
e 18 241
e 18 244
e 19 20
e 19 21
e 19 23
e 19 24
e 19 25
e 19 26
e 19 29
e 19 30
e 19 32
e 19 33
e 19 34
e 19 35
e 19 36
e 19 38
e 19 40
e 19 44
e 19 49
e 19 50
e 19 52
e 19 53
e 19 54
e 19 56
e 19 57
e 19 58
e 19 60
e 19 62
e 19 63
e 19 65
e 19 66
e 19 67
e 19 73
e 19 74
e 19 76
e 19 77
e 19 82
e 19 86
e 19 93
e 19 96
e 19 98
e 19 99
e 19 100
e 19 106
e 19 112
e 19 114
e 19 119
e 19 121
e 19 122
e 19 127
e 19 131
e 19 133
e 19 136
e 19 138
e 19 139
e 19 143
e 19 144
e 19 147
e 19 151
e 19 153
e 19 154
e 19 155
e 19 156
e 19 160
e 19 164
e 19 165
e 19 170
e 19 173
e 19 175
e 19 176
e 19 187
e 19 188
e 19 190
e 19 194
e 19 195
e 19 196
e 19 197
e 19 202
e 19 205
e 19 210
e 19 211
e 19 217
e 19 230
e 19 233
e 19 245
e 19 246
e 19 250
e 19 251
e 20 21
e 20 22
e 20 23
e 20 24
e 20 25
e 20 26
e 20 27
e 20 28
e 20 29
e 20 30
e 20 31
e 20 32
e 20 33
e 20 37
e 20 39
e 20 40
e 20 41
e 20 45
e 20 46
e 20 49
e 20 50
e 20 51
e 20 52
e 20 58
e 20 59
e 20 62
e 20 64
e 20 67
e 20 69
e 20 72
e 20 74
e 20 75
e 20 76
e 20 78
e 20 85
e 20 88
e 20 93
e 20 94
e 20 96
e 20 97
e 20 99
e 20 102
e 20 109
e 20 111
e 20 112
e 20 118
e 20 119
e 20 124
e 20 128
e 20 136
e 20 143
e 20 145
e 20 161
e 20 164
e 20 166
e 20 177
e 20 179
e 20 180
e 20 184
e 20 188
e 20 193
e 20 195
e 20 199
e 20 200
e 20 201
e 20 202
e 20 207
e 20 211
e 20 212
e 20 216
e 20 217
e 20 225
e 21 22
e 21 23
e 21 24
e 21 25
e 21 26
e 21 27
e 21 28
e 21 29
e 21 30
e 21 31
e 21 32
e 21 33
e 21 36
e 21 37
e 21 38
e 21 39
e 21 42
e 21 43
e 21 47
e 21 49
e 21 51
e 21 54
e 21 55
e 21 58
e 21 61
e 21 64
e 21 68
e 21 69
e 21 78
e 21 82
e 21 83
e 21 85
e 21 86
e 21 88
e 21 89
e 21 95
e 21 100
e 21 101
e 21 103
e 21 110
e 21 119
e 21 120
e 21 121
e 21 128
e 21 130
e 21 136
e 21 137
e 21 141
e 21 147
e 21 151
e 21 164
e 21 167
e 21 179
e 21 192
e 21 193
e 21 199
e 21 205
e 21 209
e 21 211
e 21 212
e 21 219
e 21 220
e 21 222
e 21 228
e 21 229
e 21 232
e 21 241
e 21 244
e 21 247
e 21 251
e 22 23
e 22 24
e 22 25
e 22 26
e 22 28
e 22 31
e 22 32
e 22 33
e 22 34
e 22 35
e 22 36
e 22 37
e 22 38
e 22 39
e 22 40
e 22 41
e 22 43
e 22 45
e 22 46
e 22 49
e 22 50
e 22 52
e 22 54
e 22 55
e 22 56
e 22 58
e 22 61
e 22 62
e 22 71
e 22 84
e 22 89
e 22 97
e 22 102
e 22 103
e 22 104
e 22 111
e 22 113
e 22 130
e 22 132
e 22 134
e 22 137
e 22 138
e 22 139
e 22 142
e 22 150
e 22 151
e 22 153
e 22 155
e 22 158
e 22 163
e 22 172
e 22 173
e 22 175
e 22 176
e 22 179
e 22 183
e 22 191
e 22 197
e 22 199
e 22 205
e 22 206
e 22 212
e 22 214
e 22 216
e 22 217
e 22 220
e 22 221
e 22 225
e 22 228
e 22 230
e 22 231
e 22 232
e 22 240
e 22 246
e 22 249
e 22 250
e 23 24
e 23 25
e 23 26
e 23 27
e 23 28
e 23 29
e 23 32
e 23 33
e 23 36
e 23 37
e 23 38
e 23 39
e 23 40
e 23 43
e 23 44
e 23 47
e 23 50
e 23 52
e 23 54
e 23 55
e 23 59
e 23 65
e 23 67
e 23 70
e 23 73
e 23 75
e 23 80
e 23 83
e 23 90
e 23 91
e 23 94
e 23 95
e 23 101
e 23 106
e 23 111
e 23 118
e 23 124
e 23 126
e 23 131
e 23 134
e 23 138
e 23 141
e 23 144
e 23 147
e 23 155
e 23 159
e 23 164
e 23 168
e 23 170
e 23 171
e 23 174
e 23 175
e 23 179
e 23 182
e 23 186
e 23 188
e 23 189
e 23 200
e 23 202
e 23 203
e 23 208
e 23 209
e 23 213
e 23 215
e 23 236
e 23 238
e 23 241
e 24 25
e 24 26
e 24 27
e 24 28
e 24 30
e 24 33
e 24 34
e 24 35
e 24 37
e 24 40
e 24 41
e 24 50
e 24 52
e 24 56
e 24 57
e 24 58
e 24 62
e 24 63
e 24 73
e 24 74
e 24 75
e 24 76
e 24 81
e 24 84
e 24 87
e 24 89
e 24 91
e 24 92
e 24 96
e 24 98
e 24 111
e 24 114
e 24 115
e 24 117
e 24 118
e 24 119
e 24 120
e 24 124
e 24 130
e 24 137
e 24 140
e 24 142
e 24 148
e 24 153
e 24 156
e 24 169
e 24 172
e 24 174
e 24 180
e 24 190
e 24 191
e 24 206
e 24 209
e 25 27
e 25 28
e 25 29
e 25 30
e 25 31
e 25 32
e 25 34
e 25 35
e 25 38
e 25 39
e 25 40
e 25 41
e 25 42
e 25 43
e 25 44
e 25 45
e 25 48
e 25 50
e 25 51
e 25 53
e 25 59
e 25 61
e 25 63
e 25 65
e 25 69
e 25 71
e 25 73
e 25 75
e 25 80
e 25 83
e 25 86
e 25 87
e 25 90
e 25 92
e 25 102
e 25 103
e 25 105
e 25 106
e 25 107
e 25 109
e 25 116
e 25 122
e 25 125
e 25 128
e 25 133
e 25 136
e 25 140
e 25 142
e 25 143
e 25 145
e 25 148
e 25 149
e 25 154
e 25 155
e 25 158
e 25 163
e 25 167
e 25 168
e 25 174
e 25 178
e 25 190
e 25 196
e 25 201
e 25 206
e 25 207
e 25 214
e 25 217
e 25 218
e 25 221
e 25 223
e 25 232
e 25 238
e 25 251
e 26 29
e 26 31
e 26 32
e 26 33
e 26 35
e 26 36
e 26 37
e 26 38
e 26 39
e 26 40
e 26 41
e 26 42
e 26 44
e 26 46
e 26 53
e 26 54
e 26 56
e 26 60
e 26 63
e 26 67
e 26 75
e 26 81
e 26 83
e 26 90
e 26 95
e 26 96
e 26 97
e 26 98
e 26 100
e 26 105
e 26 106
e 26 111
e 26 115
e 26 136
e 26 140
e 26 143
e 26 144
e 26 146
e 26 158
e 26 176
e 26 186
e 26 194
e 26 208
e 26 209
e 26 216
e 26 224
e 26 227
e 26 230
e 26 237
e 27 28
e 27 30
e 27 31
e 27 35
e 27 36
e 27 38
e 27 39
e 27 40
e 27 42
e 27 43
e 27 44
e 27 47
e 27 48
e 27 52
e 27 53
e 27 55
e 27 60
e 27 72
e 27 75
e 27 77
e 27 79
e 27 85
e 27 88
e 27 92
e 27 97
e 27 100
e 27 104
e 27 108
e 27 117
e 27 118
e 27 120
e 27 122
e 27 124
e 27 128
e 27 129
e 27 131
e 27 133
e 27 142
e 27 145
e 27 146
e 27 156
e 27 159
e 27 162
e 27 179
e 27 184
e 27 188
e 27 190
e 27 197
e 27 199
e 27 218
e 27 229
e 27 230
e 27 236
e 28 29
e 28 30
e 28 31
e 28 34
e 28 36
e 28 38
e 28 39
e 28 43
e 28 45
e 28 47
e 28 48
e 28 49
e 28 51
e 28 55
e 28 56
e 28 58
e 28 61
e 28 66
e 28 67
e 28 70
e 28 79
e 28 80
e 28 81
e 28 89
e 28 90
e 28 97
e 28 101
e 28 102
e 28 106
e 28 115
e 28 121
e 28 123
e 28 125
e 28 127
e 28 129
e 28 146
e 28 147
e 28 148
e 28 151
e 28 152
e 28 155
e 28 172
e 28 173
e 28 180
e 28 193
e 28 195
e 28 205
e 28 214
e 28 221
e 28 223
e 28 224
e 28 230
e 28 240
e 28 244
e 28 245
e 28 246
e 28 247
e 28 248
e 29 31
e 29 32
e 29 33
e 29 35
e 29 43
e 29 44
e 29 46
e 29 54
e 29 56
e 29 58
e 29 60
e 29 64
e 29 66
e 29 71
e 29 72
e 29 84
e 29 88
e 29 94
e 29 96
e 29 97
e 29 98
e 29 99
e 29 103
e 29 104
e 29 107
e 29 111
e 29 113
e 29 121
e 29 123
e 29 132
e 29 138
e 29 147
e 29 156
e 29 161
e 29 163
e 29 165
e 29 168
e 29 185
e 29 199
e 29 219
e 29 222
e 29 229
e 29 234
e 29 238
e 29 250
e 30 32
e 30 34
e 30 40
e 30 41
e 30 43
e 30 47
e 30 51
e 30 59
e 30 68
e 30 71
e 30 97
e 30 110
e 30 125
e 30 129
e 30 131
e 30 160
e 30 167
e 30 178
e 30 184
e 30 187
e 30 190
e 30 229
e 30 232
e 30 244
e 30 247
e 31 34
e 31 41
e 31 43
e 31 44
e 31 46
e 31 48
e 31 61
e 31 65
e 31 68
e 31 69
e 31 70
e 31 76
e 31 77
e 31 78
e 31 80
e 31 83
e 31 85
e 31 87
e 31 94
e 31 101
e 31 105
e 31 113
e 31 117
e 31 126
e 31 130
e 31 134
e 31 156
e 31 166
e 31 172
e 31 175
e 31 182
e 31 183
e 31 187
e 31 192
e 31 199
e 31 211
e 31 213
e 31 234
e 31 242
e 31 243
e 32 37
e 32 38
e 32 41
e 32 42
e 32 43
e 32 45
e 32 47
e 32 48
e 32 50
e 32 62
e 32 64
e 32 67
e 32 68
e 32 69
e 32 71
e 32 75
e 32 76
e 32 77
e 32 80
e 32 81
e 32 83
e 32 85
e 32 90
e 32 96
e 32 99
e 32 100
e 32 101
e 32 105
e 32 108
e 32 112
e 32 113
e 32 119
e 32 121
e 32 126
e 32 133
e 32 138
e 32 141
e 32 142
e 32 145
e 32 149
e 32 154
e 32 161
e 32 170
e 32 172
e 32 174
e 32 182
e 32 189
e 32 192
e 32 193
e 32 194
e 32 195
e 32 198
e 32 205
e 32 222
e 32 228
e 32 237
e 32 243
e 32 248
e 32 251
e 33 34
e 33 35
e 33 36
e 33 42
e 33 43
e 33 44
e 33 45
e 33 46
e 33 47
e 33 49
e 33 51
e 33 53
e 33 54
e 33 60
e 33 65
e 33 66
e 33 74
e 33 75
e 33 78
e 33 89
e 33 91
e 33 92
e 33 104
e 33 108
e 33 112
e 33 113
e 33 116
e 33 117
e 33 118
e 33 135
e 33 144
e 33 148
e 33 153
e 33 157
e 33 184
e 33 190
e 33 193
e 33 204
e 33 210
e 33 218
e 33 219
e 33 238
e 33 251
e 34 35
e 34 36
e 34 37
e 34 41
e 34 45
e 34 46
e 34 50
e 34 54
e 34 56
e 34 60
e 34 67
e 34 75
e 34 78
e 34 80
e 34 88
e 34 89
e 34 97
e 34 102
e 34 114
e 34 115
e 34 122
e 34 126
e 34 131
e 34 134
e 34 145
e 34 149
e 34 155
e 34 160
e 34 171
e 34 180
e 34 181
e 34 183
e 34 190
e 34 206
e 34 220
e 35 36
e 35 37
e 35 38
e 35 39
e 35 40
e 35 41
e 35 48
e 35 50
e 35 51
e 35 52
e 35 53
e 35 57
e 35 60
e 35 61
e 35 63
e 35 66
e 35 76
e 35 79
e 35 81
e 35 86
e 35 88
e 35 99
e 35 112
e 35 113
e 35 120
e 35 121
e 35 122
e 35 123
e 35 138
e 35 141
e 35 149
e 35 157
e 35 180
e 35 182
e 35 200
e 35 203
e 35 221
e 35 222
e 35 237
e 35 241
e 35 246
e 35 248
e 36 39
e 36 40
e 36 43
e 36 45
e 36 55
e 36 56
e 36 59
e 36 64
e 36 65
e 36 72
e 36 74
e 36 78
e 36 81
e 36 82
e 36 86
e 36 89
e 36 91
e 36 94
e 36 99
e 36 101
e 36 103
e 36 109
e 36 112
e 36 113
e 36 114
e 36 117
e 36 122
e 36 143
e 36 150
e 36 154
e 36 159
e 36 160
e 36 163
e 36 168
e 36 171
e 36 180
e 36 182
e 36 183
e 36 186
e 36 192
e 36 198
e 36 206
e 36 207
e 36 214
e 36 224
e 36 227
e 36 243
e 36 246
e 37 38
e 37 42
e 37 44
e 37 46
e 37 48
e 37 58
e 37 59
e 37 71
e 37 73
e 37 89
e 37 92
e 37 99
e 37 111
e 37 115
e 37 116
e 37 121
e 37 124
e 37 139
e 37 144
e 37 145
e 37 152
e 37 160
e 37 163
e 37 170
e 37 180
e 37 186
e 37 189
e 37 200
e 37 216
e 37 219
e 38 39
e 38 41
e 38 43
e 38 44
e 38 46
e 38 52
e 38 54
e 38 55
e 38 57
e 38 65
e 38 69
e 38 70
e 38 74
e 38 77
e 38 80
e 38 83
e 38 87
e 38 88
e 38 95
e 38 96
e 38 97
e 38 106
e 38 111
e 38 113
e 38 124
e 38 130
e 38 167
e 38 171
e 38 182
e 38 187
e 38 191
e 38 197
e 38 204
e 38 222
e 38 224
e 38 249
e 38 251
e 39 40
e 39 45
e 39 48
e 39 49
e 39 50
e 39 52
e 39 57
e 39 60
e 39 62
e 39 64
e 39 70
e 39 74
e 39 75
e 39 79
e 39 83
e 39 84
e 39 85
e 39 87
e 39 106
e 39 108
e 39 127
e 39 132
e 39 133
e 39 143
e 39 148
e 39 152
e 39 153
e 39 160
e 39 168
e 39 197
e 39 203
e 39 206
e 39 207
e 39 209
e 39 210
e 39 233
e 39 234
e 39 242
e 40 41
e 40 42
e 40 44
e 40 46
e 40 48
e 40 68
e 40 69
e 40 73
e 40 83
e 40 84
e 40 90
e 40 103
e 40 109
e 40 110
e 40 111
e 40 118
e 40 121
e 40 123
e 40 127
e 40 133
e 40 135
e 40 136
e 40 139
e 40 150
e 40 153
e 40 154
e 40 155
e 40 161
e 40 165
e 40 174
e 40 198
e 40 202
e 40 205
e 40 213
e 40 214
e 40 217
e 40 225
e 40 226
e 40 231
e 40 243
e 41 42
e 41 45
e 41 47
e 41 52
e 41 53
e 41 54
e 41 55
e 41 58
e 41 73
e 41 76
e 41 81
e 41 86
e 41 94
e 41 98
e 41 102
e 41 104
e 41 109
e 41 126
e 41 129
e 41 143
e 41 146
e 41 157
e 41 168
e 41 169
e 41 185
e 41 191
e 41 214
e 41 222
e 41 235
e 41 243
e 41 245
e 41 251
e 42 44
e 42 46
e 42 57
e 42 58
e 42 61
e 42 68
e 42 70
e 42 74
e 42 79
e 42 80
e 42 84
e 42 93
e 42 101
e 42 103
e 42 104
e 42 116
e 42 131
e 42 151
e 42 159
e 42 162
e 42 168
e 42 169
e 42 173
e 42 177
e 42 178
e 42 188
e 42 200
e 42 211
e 42 215
e 42 227
e 42 233
e 42 234
e 42 240
e 42 242
e 43 44
e 43 46
e 43 47
e 43 49
e 43 53
e 43 56
e 43 58
e 43 61
e 43 62
e 43 64
e 43 70
e 43 72
e 43 74
e 43 83
e 43 89
e 43 93
e 43 102
e 43 105
e 43 107
e 43 109
e 43 110
e 43 112
e 43 116
e 43 118
e 43 119
e 43 124
e 43 125
e 43 126
e 43 133
e 43 135
e 43 139
e 43 153
e 43 156
e 43 167
e 43 172
e 43 176
e 43 184
e 43 194
e 43 195
e 43 209
e 43 211
e 43 215
e 43 229
e 43 241
e 43 247
e 44 49
e 44 55
e 44 67
e 44 76
e 44 83
e 44 86
e 44 91
e 44 96
e 44 99
e 44 107
e 44 113
e 44 114
e 44 116
e 44 117
e 44 125
e 44 127
e 44 134
e 44 135
e 44 154
e 44 159
e 44 163
e 44 171
e 44 172
e 44 188
e 44 200
e 44 206
e 44 210
e 44 232
e 44 234
e 44 237
e 45 46
e 45 48
e 45 49
e 45 50
e 45 51
e 45 62
e 45 63
e 45 66
e 45 68
e 45 80
e 45 82
e 45 88
e 45 92
e 45 95
e 45 107
e 45 114
e 45 129
e 45 130
e 45 133
e 45 140
e 45 152
e 45 154
e 45 156
e 45 157
e 45 164
e 45 171
e 45 173
e 45 178
e 45 181
e 45 198
e 45 199
e 45 228
e 45 237
e 45 250
e 46 50
e 46 60
e 46 66
e 46 71
e 46 82
e 46 115
e 46 116
e 46 120
e 46 151
e 46 172
e 46 181
e 46 198
e 46 201
e 46 234
e 46 239
e 47 55
e 47 59
e 47 63
e 47 75
e 47 93
e 47 100
e 47 101
e 47 107
e 47 110
e 47 116
e 47 120
e 47 136
e 47 140
e 47 155
e 47 163
e 47 166
e 47 181
e 47 224
e 47 245
e 47 249
e 48 49
e 48 51
e 48 57
e 48 59
e 48 77
e 48 82
e 48 101
e 48 109
e 48 132
e 48 153
e 48 166
e 48 175
e 48 195
e 48 199
e 48 216
e 48 236
e 49 52
e 49 53
e 49 54
e 49 57
e 49 68
e 49 90
e 49 93
e 49 96
e 49 107
e 49 112
e 49 132
e 49 135
e 49 138
e 49 144
e 49 152
e 49 161
e 49 178
e 49 189
e 49 196
e 49 213
e 49 221
e 49 227
e 50 52
e 50 57
e 50 61
e 50 64
e 50 65
e 50 73
e 50 74
e 50 76
e 50 77
e 50 78
e 50 81
e 50 91
e 50 93
e 50 102
e 50 107
e 50 110
e 50 119
e 50 129
e 50 135
e 50 158
e 50 159
e 50 162
e 50 163
e 50 177
e 50 178
e 50 189
e 50 194
e 50 203
e 50 204
e 50 208
e 50 214
e 50 217
e 50 220
e 50 240
e 50 242
e 50 248
e 51 52
e 51 56
e 51 63
e 51 69
e 51 72
e 51 77
e 51 78
e 51 84
e 51 85
e 51 86
e 51 88
e 51 89
e 51 92
e 51 95
e 51 98
e 51 101
e 51 103
e 51 108
e 51 115
e 51 127
e 51 128
e 51 131
e 51 132
e 51 134
e 51 142
e 51 145
e 51 151
e 51 160
e 51 162
e 51 166
e 51 167
e 51 183
e 51 191
e 51 197
e 51 207
e 51 209
e 51 218
e 51 224
e 51 225
e 51 231
e 51 235
e 51 240
e 51 245
e 52 53
e 52 54
e 52 55
e 52 56
e 52 59
e 52 60
e 52 63
e 52 64
e 52 65
e 52 66
e 52 71
e 52 72
e 52 77
e 52 79
e 52 82
e 52 86
e 52 98
e 52 104
e 52 110
e 52 114
e 52 120
e 52 125
e 52 131
e 52 132
e 52 136
e 52 139
e 52 142
e 52 144
e 52 145
e 52 150
e 52 158
e 52 169
e 52 171
e 52 175
e 52 184
e 52 185
e 52 189
e 52 191
e 52 196
e 52 226
e 52 231
e 52 232
e 52 235
e 52 247
e 53 63
e 53 67
e 53 79
e 53 83
e 53 84
e 53 85
e 53 91
e 53 95
e 53 117
e 53 118
e 53 126
e 53 151
e 53 160
e 53 163
e 53 176
e 53 178
e 53 183
e 53 197
e 53 213
e 53 221
e 54 55
e 54 56
e 54 61
e 54 67
e 54 69
e 54 85
e 54 90
e 54 92
e 54 97
e 54 102
e 54 108
e 54 112
e 54 113
e 54 122
e 54 124
e 54 125
e 54 132
e 54 133
e 54 137
e 54 162
e 54 177
e 54 186
e 54 188
e 55 82
e 55 84
e 55 100
e 55 117
e 55 132
e 55 137
e 55 139
e 55 146
e 55 157
e 55 166
e 55 185
e 55 186
e 55 189
e 55 220
e 55 226
e 55 241
e 55 248
e 56 60
e 56 61
e 56 62
e 56 64
e 56 73
e 56 86
e 56 90
e 56 94
e 56 95
e 56 96
e 56 98
e 56 100
e 56 110
e 56 153
e 56 170
e 56 180
e 56 186
e 56 193
e 56 194
e 56 198
e 56 200
e 56 204
e 56 212
e 56 221
e 56 233
e 56 240
e 57 66
e 57 69
e 57 90
e 57 92
e 57 95
e 57 103
e 57 105
e 57 107
e 57 108
e 57 111
e 57 124
e 57 126
e 57 148
e 57 167
e 57 170
e 57 171
e 57 176
e 57 189
e 57 225
e 57 235
e 57 248
e 57 249
e 58 59
e 58 66
e 58 67
e 58 68
e 58 69
e 58 70
e 58 76
e 58 80
e 58 87
e 58 90
e 58 114
e 58 116
e 58 121
e 58 126
e 58 146
e 58 154
e 58 170
e 58 171
e 58 174
e 58 182
e 58 196
e 58 202
e 58 214
e 58 228
e 58 239
e 58 241
e 58 242
e 58 250
e 59 63
e 59 65
e 59 68
e 59 79
e 59 82
e 59 87
e 59 88
e 59 104
e 59 113
e 59 123
e 59 145
e 59 148
e 59 152
e 59 164
e 59 168
e 59 186
e 59 219
e 59 226
e 60 66
e 60 69
e 60 71
e 60 79
e 60 80
e 60 82
e 60 84
e 60 85
e 60 91
e 60 95
e 60 115
e 60 118
e 60 126
e 60 128
e 60 139
e 60 150
e 60 161
e 60 190
e 60 195
e 60 238
e 61 66
e 61 78
e 61 80
e 61 88
e 61 91
e 61 110
e 61 115
e 61 117
e 61 124
e 61 129
e 61 130
e 61 138
e 61 165
e 61 166
e 61 186
e 61 193
e 61 198
e 61 220
e 61 223
e 61 238
e 62 63
e 62 65
e 62 67
e 62 68
e 62 72
e 62 78
e 62 80
e 62 81
e 62 87
e 62 105
e 62 111
e 62 115
e 62 117
e 62 124
e 62 129
e 62 130
e 62 136
e 62 147
e 62 157
e 62 158
e 62 161
e 62 181
e 62 184
e 62 205
e 62 211
e 62 218
e 62 219
e 62 227
e 62 230
e 62 237
e 62 242
e 63 70
e 63 71
e 63 75
e 63 94
e 63 104
e 63 131
e 63 135
e 63 150
e 63 152
e 63 174
e 63 179
e 63 187
e 63 203
e 63 208
e 63 211
e 63 213
e 63 226
e 63 242
e 64 67
e 64 70
e 64 73
e 64 74
e 64 76
e 64 77
e 64 82
e 64 83
e 64 84
e 64 89
e 64 92
e 64 130
e 64 148
e 64 184
e 64 208
e 64 212
e 64 225
e 64 235
e 64 248
e 64 250
e 65 77
e 65 87
e 65 88
e 65 106
e 65 110
e 65 117
e 65 121
e 65 128
e 65 131
e 65 132
e 65 140
e 65 145
e 65 149
e 65 159
e 65 181
e 65 182
e 65 194
e 65 202
e 65 206
e 65 207
e 65 218
e 65 220
e 66 73
e 66 77
e 66 116
e 66 135
e 66 140
e 66 142
e 66 159
e 66 169
e 66 187
e 66 203
e 66 212
e 66 216
e 66 220
e 66 227
e 66 231
e 66 249
e 67 71
e 67 72
e 67 74
e 67 91
e 67 102
e 67 112
e 67 127
e 67 132
e 67 154
e 67 177
e 67 201
e 67 202
e 67 205
e 67 207
e 67 225
e 67 230
e 68 74
e 68 78
e 68 79
e 68 80
e 68 86
e 68 87
e 68 104
e 68 105
e 68 108
e 68 111
e 68 128
e 68 134
e 68 137
e 68 142
e 68 158
e 68 168
e 68 182
e 68 191
e 68 215
e 68 221
e 68 228
e 68 232
e 68 240
e 69 70
e 69 76
e 69 79
e 69 82
e 69 93
e 69 94
e 69 96
e 69 98
e 69 99
e 69 105
e 69 108
e 69 118
e 69 143
e 69 167
e 69 175
e 69 199
e 69 212
e 69 220
e 69 229
e 69 233
e 69 239
e 69 250
e 70 74
e 70 79
e 70 80
e 70 89
e 70 92
e 70 96
e 70 102
e 70 115
e 70 117
e 70 119
e 70 129
e 70 139
e 70 144
e 70 148
e 70 166
e 70 167
e 70 169
e 70 176
e 70 189
e 70 195
e 70 199
e 70 200
e 70 219
e 70 223
e 70 226
e 70 234
e 71 77
e 71 82
e 71 118
e 71 120
e 71 143
e 71 165
e 71 197
e 71 198
e 71 217
e 71 233
e 71 236
e 72 81
e 72 95
e 72 107
e 72 109
e 72 141
e 72 148
e 73 78
e 73 83
e 73 93
e 73 108
e 73 109
e 73 125
e 73 145
e 73 155
e 73 166
e 73 188
e 73 193
e 73 212
e 73 243
e 73 246
e 74 76
e 74 93
e 74 95
e 74 96
e 74 97
e 74 98
e 74 103
e 74 106
e 74 107
e 74 130
e 74 132
e 74 136
e 74 146
e 74 152
e 74 156
e 74 167
e 74 169
e 74 171
e 74 187
e 74 189
e 74 190
e 74 214
e 74 220
e 75 76
e 75 87
e 75 90
e 75 92
e 75 94
e 75 95
e 75 101
e 75 125
e 75 150
e 75 169
e 75 202
e 75 203
e 75 231
e 75 238
e 76 81
e 76 201
e 76 225
e 76 249
e 76 250
e 77 78
e 77 93
e 77 100
e 77 106
e 77 110
e 77 113
e 77 119
e 77 133
e 77 151
e 77 185
e 77 194
e 77 250
e 78 86
e 78 91
e 78 93
e 78 94
e 78 121
e 78 125
e 78 129
e 78 138
e 78 142
e 78 150
e 78 153
e 78 159
e 78 162
e 78 165
e 78 167
e 78 201
e 78 204
e 78 228
e 78 246
e 78 249
e 79 80
e 79 84
e 79 85
e 79 92
e 79 111
e 79 114
e 79 117
e 79 120
e 79 129
e 79 148
e 79 161
e 79 167
e 79 181
e 79 192
e 79 196
e 79 203
e 79 223
e 79 231
e 79 239
e 79 243
e 80 82
e 80 89
e 80 91
e 80 116
e 80 122
e 80 141
e 80 146
e 80 151
e 80 224
e 80 227
e 80 236
e 81 85
e 81 105
e 81 113
e 81 128
e 81 146
e 81 147
e 81 151
e 81 157
e 81 173
e 81 188
e 81 201
e 81 202
e 82 88
e 82 95
e 82 105
e 82 110
e 82 116
e 82 127
e 82 133
e 82 156
e 82 160
e 82 163
e 82 167
e 82 194
e 82 220
e 82 227
e 83 97
e 83 114
e 83 122
e 83 123
e 83 152
e 83 180
e 83 182
e 83 188
e 83 199
e 83 236
e 83 239
e 83 250
e 84 94
e 84 95
e 84 102
e 84 112
e 84 116
e 84 126
e 84 135
e 84 149
e 84 161
e 84 163
e 84 197
e 84 208
e 84 232
e 84 236
e 84 249
e 84 251
e 85 86
e 85 87
e 85 90
e 85 94
e 85 100
e 85 104
e 85 112
e 85 113
e 85 121
e 85 126
e 85 134
e 85 180
e 85 199
e 85 204
e 85 208
e 85 223
e 85 237
e 86 100
e 86 106
e 86 132
e 86 137
e 86 155
e 86 158
e 86 176
e 86 181
e 86 183
e 86 228
e 86 233
e 86 238
e 87 101
e 87 112
e 87 128
e 87 137
e 87 166
e 87 168
e 87 184
e 87 194
e 87 207
e 87 209
e 87 223
e 87 244
e 88 104
e 88 108
e 88 123
e 88 128
e 88 166
e 88 170
e 88 191
e 88 192
e 88 211
e 88 225
e 88 235
e 88 238
e 89 90
e 89 96
e 89 143
e 89 144
e 89 147
e 89 153
e 89 161
e 89 180
e 89 182
e 89 205
e 89 209
e 89 240
e 90 91
e 90 100
e 90 105
e 90 107
e 90 112
e 90 134
e 90 159
e 90 163
e 90 218
e 90 222
e 90 226
e 90 231
e 90 238
e 90 243
e 91 105
e 91 109
e 91 128
e 91 153
e 91 158
e 91 164
e 91 168
e 91 169
e 91 197
e 91 213
e 92 141
e 92 148
e 92 150
e 92 161
e 92 164
e 92 179
e 92 185
e 92 217
e 92 232
e 93 135
e 93 147
e 93 183
e 93 236
e 94 125
e 94 133
e 94 136
e 94 152
e 94 158
e 94 175
e 94 198
e 94 245
e 94 248
e 95 97
e 95 98
e 95 122
e 95 123
e 95 134
e 95 135
e 95 140
e 95 142
e 95 164
e 95 172
e 95 191
e 95 199
e 95 224
e 95 230
e 95 244
e 95 251
e 96 144
e 96 157
e 96 165
e 96 168
e 96 192
e 96 193
e 96 201
e 96 243
e 96 245
e 97 109
e 97 120
e 97 136
e 97 138
e 97 141
e 97 162
e 97 164
e 97 230
e 97 241
e 97 242
e 98 102
e 98 111
e 98 129
e 98 134
e 98 146
e 98 150
e 98 156
e 98 164
e 98 202
e 98 212
e 98 216
e 98 222
e 99 162
e 99 166
e 99 219
e 100 116
e 100 144
e 100 154
e 100 165
e 100 171
e 100 191
e 100 229
e 100 238
e 101 109
e 101 113
e 101 127
e 101 140
e 101 145
e 101 175
e 101 195
e 101 200
e 101 208
e 101 209
e 101 215
e 101 233
e 101 248
e 101 249
e 102 120
e 102 122
e 102 149
e 102 151
e 102 160
e 102 162
e 102 172
e 102 177
e 102 178
e 102 184
e 102 204
e 102 227
e 102 234
e 102 247
e 102 248
e 103 109
e 103 129
e 103 174
e 103 189
e 103 202
e 103 216
e 103 218
e 103 239
e 103 241
e 104 105
e 104 106
e 104 107
e 104 137
e 104 152
e 104 162
e 104 177
e 104 180
e 104 183
e 104 209
e 105 116
e 105 138
e 105 145
e 105 153
e 105 162
e 105 184
e 105 188
e 105 204
e 105 212
e 105 215
e 105 222
e 105 226
e 105 229
e 105 232
e 106 110
e 106 114
e 106 122
e 106 123
e 106 131
e 106 137
e 106 140
e 106 145
e 106 161
e 106 193
e 106 221
e 106 237
e 106 239
e 106 248
e 107 108
e 107 110
e 107 129
e 107 142
e 107 144
e 107 148
e 107 149
e 107 159
e 107 160
e 107 166
e 107 167
e 107 172
e 107 175
e 107 178
e 107 183
e 107 187
e 107 201
e 107 202
e 107 210
e 107 224
e 107 232
e 107 240
e 107 244
e 107 246
e 107 249
e 108 111
e 108 123
e 108 126
e 108 133
e 108 141
e 108 143
e 108 162
e 108 173
e 108 191
e 108 210
e 108 214
e 108 217
e 108 225
e 108 230
e 108 241
e 109 114
e 109 143
e 109 155
e 109 170
e 109 181
e 109 183
e 109 223
e 109 229
e 109 240
e 110 126
e 110 127
e 110 139
e 110 155
e 110 162
e 110 192
e 110 196
e 110 205
e 110 213
e 111 121
e 111 131
e 111 136
e 111 139
e 111 141
e 111 155
e 111 171
e 111 189
e 111 206
e 112 115
e 112 117
e 112 135
e 112 138
e 112 152
e 112 187
e 112 203
e 112 213
e 112 219
e 112 242
e 113 120
e 113 124
e 113 141
e 113 156
e 113 164
e 113 181
e 113 194
e 113 219
e 113 222
e 113 237
e 114 140
e 114 143
e 114 146
e 114 147
e 114 149
e 114 151
e 114 153
e 114 160
e 114 167
e 114 198
e 114 201
e 114 210
e 114 240
e 115 131
e 115 190
e 115 210
e 115 225
e 115 230
e 116 118
e 116 128
e 116 146
e 116 157
e 116 174
e 116 197
e 116 203
e 116 227
e 117 119
e 117 122
e 117 148
e 117 160
e 117 175
e 117 177
e 117 179
e 117 237
e 117 239
e 117 240
e 117 242
e 117 248
e 117 249
e 118 127
e 118 142
e 118 150
e 118 227
e 118 241
e 118 244
e 118 245
e 119 122
e 119 123
e 119 124
e 119 134
e 119 150
e 119 163
e 119 173
e 119 192
e 119 193
e 119 207
e 119 231
e 119 233
e 120 122
e 120 131
e 120 136
e 120 137
e 120 153
e 120 163
e 120 165
e 120 209
e 120 214
e 120 238
e 121 130
e 121 134
e 121 140
e 121 153
e 121 177
e 121 188
e 121 194
e 121 201
e 121 209
e 121 220
e 121 223
e 121 225
e 122 125
e 122 151
e 122 209
e 122 244
e 123 135
e 123 137
e 123 139
e 123 148
e 123 156
e 123 200
e 123 207
e 123 218
e 123 245
e 123 247
e 124 134
e 124 136
e 124 149
e 124 161
e 124 173
e 124 176
e 124 186
e 124 209
e 124 228
e 125 165
e 125 184
e 125 190
e 125 191
e 125 193
e 125 236
e 126 141
e 126 150
e 126 156
e 126 170
e 126 195
e 126 196
e 126 247
e 127 137
e 127 146
e 127 147
e 127 157
e 127 158
e 127 185
e 127 198
e 127 203
e 127 208
e 127 234
e 128 140
e 128 149
e 128 151
e 128 170
e 128 176
e 128 177
e 128 195
e 128 196
e 128 197
e 128 216
e 128 221
e 128 224
e 128 246
e 129 152
e 129 167
e 129 208
e 129 225
e 129 250
e 130 159
e 130 181
e 130 193
e 130 210
e 130 213
e 130 221
e 130 245
e 130 247
e 131 135
e 131 177
e 131 187
e 131 193
e 131 205
e 131 224
e 132 133
e 132 138
e 132 143
e 132 145
e 132 155
e 132 165
e 132 180
e 132 185
e 132 202
e 132 207
e 132 216
e 132 221
e 133 137
e 133 157
e 133 182
e 133 196
e 133 200
e 133 226
e 134 173
e 134 179
e 134 183
e 134 197
e 134 213
e 134 237
e 134 251
e 135 149
e 135 173
e 135 179
e 135 210
e 135 218
e 136 138
e 136 139
e 136 141
e 136 169
e 136 200
e 136 201
e 136 247
e 137 146
e 137 170
e 137 175
e 137 205
e 137 216
e 137 247
e 138 185
e 138 242
e 139 148
e 139 149
e 139 154
e 139 164
e 139 172
e 139 173
e 139 175
e 139 204
e 139 208
e 139 234
e 139 249
e 140 198
e 140 204
e 140 244
e 140 247
e 141 169
e 141 181
e 141 188
e 141 190
e 141 218
e 141 222
e 141 236
e 142 168
e 142 175
e 142 202
e 142 221
e 142 239
e 142 244
e 143 168
e 143 207
e 144 204
e 144 207
e 144 210
e 144 242
e 144 246
e 145 152
e 145 218
e 146 147
e 146 150
e 146 179
e 146 201
e 147 149
e 147 165
e 147 190
e 147 197
e 147 198
e 147 208
e 147 233
e 148 150
e 148 159
e 148 171
e 148 181
e 148 186
e 148 205
e 148 228
e 148 232
e 148 250
e 149 165
e 150 159
e 150 176
e 150 185
e 150 213
e 150 231
e 150 246
e 150 249
e 151 157
e 151 203
e 151 220
e 151 230
e 151 235
e 151 246
e 152 165
e 152 172
e 152 195
e 152 201
e 152 231
e 152 243
e 153 154
e 153 158
e 153 174
e 153 197
e 153 208
e 153 212
e 153 228
e 153 239
e 154 173
e 154 205
e 154 217
e 154 218
e 154 224
e 154 226
e 155 157
e 155 221
e 156 170
e 156 183
e 156 203
e 156 226
e 156 245
e 157 171
e 157 179
e 157 215
e 157 235
e 158 164
e 158 165
e 158 168
e 158 183
e 158 186
e 158 234
e 158 249
e 158 251
e 159 161
e 159 177
e 159 211
e 159 215
e 159 236
e 159 243
e 160 176
e 160 194
e 160 220
e 160 224
e 161 169
e 161 201
e 161 251
e 162 174
e 162 219
e 163 177
e 163 187
e 163 189
e 163 192
e 163 208
e 163 237
e 163 246
e 164 166
e 164 168
e 164 182
e 164 186
e 165 179
e 165 206
e 165 211
e 165 233
e 166 174
e 166 178
e 166 238
e 166 250
e 167 170
e 167 172
e 167 228
e 168 169
e 168 185
e 168 217
e 168 235
e 168 251
e 169 178
e 169 182
e 169 212
e 169 227
e 169 239
e 169 247
e 170 173
e 170 220
e 170 222
e 170 231
e 171 174
e 171 195
e 172 225
e 172 229
e 173 185
e 173 216
e 173 240
e 174 181
e 174 189
e 175 189
e 175 214
e 175 217
e 175 223
e 175 226
e 176 178
e 176 184
e 176 191
e 176 193
e 176 200
e 177 196
e 178 187
e 178 203
e 178 212
e 178 232
e 178 240
e 179 210
e 179 212
e 179 231
e 180 182
e 180 215
e 180 233
e 180 234
e 181 191
e 181 202
e 181 210
e 181 211
e 181 214
e 181 234
e 181 237
e 181 245
e 182 187
e 182 196
e 182 229
e 182 239
e 183 186
e 183 195
e 183 232
e 184 195
e 184 198
e 184 200
e 185 206
e 185 212
e 185 218
e 185 227
e 186 187
e 186 198
e 186 208
e 186 240
e 186 248
e 187 206
e 187 216
e 187 234
e 187 244
e 188 200
e 189 191
e 189 203
e 189 206
e 190 215
e 192 232
e 192 243
e 192 245
e 193 223
e 193 224
e 194 237
e 194 241
e 195 223
e 195 247
e 196 228
e 197 200
e 197 211
e 197 215
e 197 219
e 197 229
e 197 251
e 198 222
e 198 226
e 199 240
e 200 205
e 200 207
e 200 219
e 200 221
e 200 251
e 201 203
e 201 204
e 202 206
e 202 211
e 202 228
e 202 246
e 203 210
e 203 235
e 205 215
e 205 235
e 205 243
e 205 244
e 206 229
e 207 213
e 207 219
e 208 212
e 208 218
e 208 237
e 208 249
e 209 216
e 209 224
e 210 233
e 211 235
e 211 248
e 212 242
e 213 215
e 213 222
e 213 224
e 213 228
e 213 234
e 213 243
e 214 248
e 215 226
e 215 245
e 216 231
e 217 222
e 218 249
e 220 227
e 221 241
e 221 245
e 222 223
e 222 226
e 225 235
e 226 239
e 227 230
e 228 229
e 228 246
e 229 233
e 229 238
e 229 245
e 230 239
e 237 246
e 237 247
e 239 248
e 241 244
e 243 250
e 245 250
